c FILE /home/rafael/Documents/HappySet/MIHS/inputs/happygen/output/graph_scale_free_k5_p0.2_v100_20241127_083839.txt
c SOURCE This is a scale-free graph formed for the happy graph colouring problem.
c DESCRIPTION It was generated using the problem generator of Rhyd Lewis
c
c GRAPH STATS
c Seed                             = 336601695
c Number of Nodes                  = 100
c Number of colours k              = 5
c Number of pre-assignments        = 20
c Number of links per new node     = 5
c Density                          = 0.0979798
c 
c The degrees of nodes 1 to 100, respectively, are as follows 
c [31, 30, 29, 28, 25, 24, 23, 23, 21, 21, 21, 20, 18, 18, 15, 15, 13, 13, 13, 13, 12, 11, 11, 11, 10, 10, 
c  10, 10, 10, 10, 10, 9, 9, 9, 9, 9, 9, 8, 8, 8, 8, 8, 8, 8, 8, 8, 8, 8, 7, 7, 7, 
c  7, 7, 7, 7, 7, 7, 7, 7, 6, 6, 6, 6, 6, 6, 6, 6, 6, 6, 6, 6, 6, 6, 6, 6, 6, 
c  5, 5, 5, 5, 5, 5, 5, 5, 5, 5, 5, 5, 5, 5, 5, 5, 5, 5, 5, 5, 5, 5, 5, 5] 
c  
p edge 100 485 5
e 1 2
e 1 3
e 1 4
e 1 6
e 1 7
e 1 8
e 1 11
e 1 12
e 1 13
e 1 15
e 1 16
e 1 18
e 1 21
e 1 23
e 1 25
e 1 28
e 1 29
e 1 32
e 1 34
e 1 36
e 1 39
e 1 46
e 1 50
e 1 55
e 1 59
e 1 60
e 1 63
e 1 67
e 1 72
e 1 74
e 1 80
e 2 3
e 2 4
e 2 5
e 2 6
e 2 7
e 2 9
e 2 10
e 2 13
e 2 15
e 2 18
e 2 22
e 2 23
e 2 25
e 2 26
e 2 29
e 2 33
e 2 38
e 2 40
e 2 41
e 2 42
e 2 51
e 2 55
e 2 66
e 2 71
e 2 72
e 2 80
e 2 83
e 2 84
e 2 100
e 3 4
e 3 5
e 3 6
e 3 7
e 3 8
e 3 9
e 3 10
e 3 13
e 3 15
e 3 16
e 3 17
e 3 19
e 3 21
e 3 23
e 3 25
e 3 28
e 3 29
e 3 30
e 3 34
e 3 38
e 3 41
e 3 46
e 3 64
e 3 75
e 3 81
e 3 92
e 3 100
e 4 5
e 4 6
e 4 7
e 4 8
e 4 10
e 4 13
e 4 14
e 4 16
e 4 17
e 4 18
e 4 20
e 4 22
e 4 24
e 4 27
e 4 32
e 4 33
e 4 35
e 4 36
e 4 52
e 4 59
e 4 60
e 4 61
e 4 64
e 4 65
e 4 93
e 5 10
e 5 11
e 5 12
e 5 15
e 5 16
e 5 19
e 5 21
e 5 28
e 5 30
e 5 31
e 5 42
e 5 45
e 5 52
e 5 61
e 5 68
e 5 73
e 5 75
e 5 79
e 5 83
e 5 85
e 5 89
e 5 93
e 6 10
e 6 11
e 6 13
e 6 20
e 6 21
e 6 25
e 6 27
e 6 32
e 6 36
e 6 37
e 6 41
e 6 42
e 6 49
e 6 63
e 6 64
e 6 69
e 6 72
e 6 78
e 6 81
e 6 95
e 7 8
e 7 9
e 7 13
e 7 14
e 7 15
e 7 19
e 7 27
e 7 31
e 7 44
e 7 48
e 7 52
e 7 57
e 7 61
e 7 62
e 7 73
e 7 84
e 7 85
e 7 93
e 7 99
e 8 9
e 8 12
e 8 13
e 8 16
e 8 22
e 8 24
e 8 26
e 8 32
e 8 33
e 8 34
e 8 38
e 8 49
e 8 50
e 8 51
e 8 67
e 8 70
e 8 72
e 8 77
e 8 94
e 9 13
e 9 20
e 9 22
e 9 29
e 9 36
e 9 38
e 9 43
e 9 44
e 9 46
e 9 54
e 9 56
e 9 59
e 9 67
e 9 76
e 9 77
e 9 78
e 9 81
e 10 11
e 10 12
e 10 17
e 10 24
e 10 26
e 10 39
e 10 44
e 10 51
e 10 52
e 10 54
e 10 56
e 10 63
e 10 68
e 10 70
e 10 78
e 10 91
e 11 17
e 11 20
e 11 23
e 11 33
e 11 34
e 11 35
e 11 38
e 11 43
e 11 47
e 11 57
e 11 64
e 11 65
e 11 66
e 11 75
e 11 83
e 11 85
e 11 87
e 12 14
e 12 35
e 12 37
e 12 39
e 12 42
e 12 43
e 12 47
e 12 49
e 12 50
e 12 62
e 12 66
e 12 72
e 12 89
e 12 91
e 12 96
e 12 100
e 13 15
e 13 22
e 13 24
e 13 25
e 13 26
e 13 28
e 13 38
e 13 45
e 13 54
e 13 65
e 14 15
e 14 16
e 14 18
e 14 22
e 14 27
e 14 31
e 14 37
e 14 39
e 14 40
e 14 54
e 14 71
e 14 74
e 14 75
e 14 87
e 14 90
e 15 16
e 15 26
e 15 41
e 15 44
e 15 53
e 15 60
e 15 78
e 15 87
e 16 21
e 16 29
e 16 40
e 16 44
e 16 57
e 16 58
e 16 69
e 16 98
e 17 18
e 17 20
e 17 32
e 17 39
e 17 62
e 17 64
e 17 69
e 17 73
e 17 99
e 18 30
e 18 31
e 18 45
e 18 53
e 18 62
e 18 68
e 18 77
e 18 96
e 19 26
e 19 30
e 19 34
e 19 36
e 19 50
e 19 51
e 19 63
e 19 70
e 19 79
e 19 92
e 20 40
e 20 46
e 20 47
e 20 52
e 20 65
e 20 74
e 20 76
e 20 77
e 21 47
e 21 57
e 21 60
e 21 75
e 21 77
e 21 82
e 21 97
e 22 34
e 22 37
e 22 61
e 22 73
e 22 97
e 23 28
e 23 41
e 23 55
e 23 70
e 23 82
e 23 86
e 23 88
e 24 39
e 24 49
e 24 71
e 24 74
e 24 76
e 24 82
e 24 86
e 25 28
e 25 33
e 25 35
e 25 37
e 25 78
e 26 27
e 26 40
e 26 49
e 26 69
e 27 79
e 27 82
e 27 86
e 27 89
e 27 97
e 28 30
e 28 60
e 28 84
e 28 92
e 29 31
e 29 53
e 29 55
e 29 83
e 29 88
e 30 43
e 30 62
e 30 90
e 30 91
e 30 94
e 31 58
e 31 85
e 31 89
e 31 99
e 31 100
e 32 38
e 32 53
e 32 58
e 32 88
e 33 43
e 33 45
e 33 66
e 33 68
e 34 46
e 34 50
e 34 61
e 35 38
e 35 42
e 35 51
e 35 56
e 35 95
e 36 48
e 36 55
e 36 86
e 36 91
e 37 63
e 37 80
e 37 84
e 37 90
e 39 57
e 39 58
e 40 48
e 40 86
e 40 99
e 41 58
e 41 59
e 41 96
e 42 79
e 42 81
e 42 95
e 43 53
e 43 80
e 43 95
e 44 47
e 44 54
e 44 94
e 45 51
e 45 68
e 45 70
e 45 98
e 46 48
e 46 84
e 46 96
e 47 91
e 47 93
e 47 100
e 48 55
e 48 83
e 48 88
e 48 93
e 49 65
e 49 71
e 50 66
e 50 87
e 51 67
e 52 73
e 52 90
e 53 76
e 53 80
e 54 76
e 54 98
e 55 79
e 56 60
e 56 66
e 56 92
e 56 95
e 57 69
e 57 99
e 58 71
e 58 88
e 59 62
e 59 96
e 59 97
e 61 97
e 63 74
e 64 67
e 65 85
e 67 81
e 68 82
e 69 87
e 70 89
e 71 90
e 72 92
e 73 98
e 74 98
e 75 94
e 76 94
n 4 5
n 5 5
n 23 4
n 25 1
n 26 2
n 34 5
n 43 4
n 49 2
n 51 3
n 54 1
n 63 3
n 64 5
n 69 2
n 73 5
n 74 3
n 79 5
n 81 3
n 88 4
n 93 5
n 95 4
